data/solutions/recovery/wellformed/moderate/binding/wellformed_moderate_instance64/12.sol
Elapsed time: 0.03
Upper bound: 4907.0
Planning weighted value: 128737.0
C[0]=4907.0
C[1]=4852.0
C[2]=4843.0
C[3]=4842.0
C[4]=0.0
y[0]=0
y[1]=3
y[2]=0
y[3]=2
y[4]=0
y[5]=1
y[6]=0
y[7]=2
y[8]=3
y[9]=1
y[10]=3
y[11]=3
y[12]=1
y[13]=2
y[14]=0
y[15]=2
y[16]=3
y[17]=0
y[18]=0
y[19]=3
y[20]=2
y[21]=1
y[22]=3
y[23]=3
y[24]=0
y[25]=3
y[26]=1
y[27]=3
y[28]=1
y[29]=2
y[30]=1
y[31]=3
y[32]=1
y[33]=1
y[34]=3
y[35]=1
y[36]=1
y[37]=2
y[38]=1
y[39]=2
y[40]=2
