data/solutions/recovery/wellformed/moderate/binding/wellformed_moderate_instance64/12.log

Log started (V12.6.3.0) Fri Apr 20 17:49:34 2018

New value for default parallel thread count: 1

Problem '/tmp/tmp12_l3a.pyomo.lp' read.
Read time = 0.00 sec. (0.08 ticks)

Problem name         : /tmp/tmp12_l3a.pyomo.lp
Objective sense      : Minimize
Variables            :     212  [Nneg: 1,  Binary: 205,  General Integer: 6]
Objective nonzeros   :       1
Linear constraints   :      94  [Less: 46,  Equal: 48]
  Nonzeros           :    5367
  RHS nonzeros       :      42

Variables            : Min LB: 0.000000         Max UB: 1.000000       
Objective nonzeros   : Min   : 1.000000         Max   : 1.000000       
Linear constraints   :
  Nonzeros           : Min   : 1.000000         Max   : 1963.000       
  RHS nonzeros       : Min   : 1.000000         Max   : 1.000000       
Tried aggregator 2 times.
MIP Presolve eliminated 77 rows and 171 columns.
Aggregator did 4 substitutions.
Reduced MIP has 13 rows, 37 columns, and 76 nonzeros.
Reduced MIP has 36 binaries, 1 generals, 0 SOSs, and 0 indicators.
Presolve time = 0.00 sec. (0.50 ticks)
Found incumbent of value 9148.000000 after 0.00 sec. (0.65 ticks)
Probing time = 0.00 sec. (0.02 ticks)
Cover probing fixed 0 vars, tightened 1 bounds.
Tried aggregator 1 time.
Reduced MIP has 13 rows, 37 columns, and 76 nonzeros.
Reduced MIP has 36 binaries, 1 generals, 0 SOSs, and 0 indicators.
Presolve time = 0.00 sec. (0.05 ticks)
Probing time = 0.00 sec. (0.02 ticks)
Clique table members: 9.
MIP emphasis: balance optimality and feasibility.
MIP search method: dynamic search.
Parallel mode: none, using 1 thread.
Root relaxation solution time = 0.00 sec. (0.03 ticks)

        Nodes                                         Cuts/
   Node  Left     Objective  IInf  Best Integer    Best Bound    ItCnt     Gap

*     0+    0                         9148.0000     4824.0000            47.27%
      0     0     4861.0000     5     9148.0000     4861.0000        6   46.86%
*     0+    0                         7074.0000     4861.0000            31.28%
      0     0     4861.0000    10     7074.0000      Cuts: 10       17   31.28%
*     0+    0                         5078.0000     4861.0000             4.27%
      0     0     4861.0000     8     5078.0000       Cuts: 4       28    4.27%
*     0+    0                         4946.0000     4861.0000             1.72%

Repeating presolve.
Tried aggregator 1 time.
MIP Presolve eliminated 1 rows and 11 columns.
Reduced MIP has 12 rows, 26 columns, and 54 nonzeros.
Reduced MIP has 25 binaries, 1 generals, 0 SOSs, and 0 indicators.
Presolve time = 0.00 sec. (0.04 ticks)
Probing time = 0.00 sec. (0.02 ticks)
Tried aggregator 1 time.
Reduced MIP has 12 rows, 26 columns, and 54 nonzeros.
Reduced MIP has 25 binaries, 1 generals, 0 SOSs, and 0 indicators.
Presolve time = 0.00 sec. (0.03 ticks)
Represolve time = 0.00 sec. (0.15 ticks)
Probing time = 0.00 sec. (0.02 ticks)
Clique table members: 12.
MIP emphasis: balance optimality and feasibility.
MIP search method: dynamic search.
Parallel mode: none, using 1 thread.
Root relaxation solution time = 0.00 sec. (0.08 ticks)

        Nodes                                         Cuts/
   Node  Left     Objective  IInf  Best Integer    Best Bound    ItCnt     Gap

*     0+    0                         4946.0000     4861.0000             1.72%
      0     0     4867.0000     6     4946.0000     4867.0000       40    1.60%
      0     0     4867.0000     6     4946.0000      Cuts: 14       45    1.60%
*     0+    0                         4907.0000     4867.0000             0.82%
      0     0     4867.0000    10     4907.0000       Cuts: 4       50    0.82%
      0     2     4867.0000     4     4907.0000     4867.0000       50    0.82%
Elapsed time = 0.02 sec. (3.12 ticks, tree = 0.01 MB, solutions = 5)

Cover cuts applied:  4
Gomory fractional cuts applied:  1

Root node processing (before b&c):
  Real time             =    0.02 sec. (3.13 ticks)
Sequential b&c:
  Real time             =    0.00 sec. (0.26 ticks)
                          ------------
Total (root+branch&cut) =    0.02 sec. (3.39 ticks)

Solution pool: 5 solutions saved.

MIP - Integer optimal solution:  Objective =  4.9070000000e+03
Solution time =    0.02 sec.  Iterations = 94  Nodes = 25
Deterministic time = 3.39 ticks  (209.63 ticks/sec)


Incumbent solution written to file '/tmp/tmp9fssiH.cplex.sol'.

Log started (V12.6.3.0) Fri Apr 20 17:52:38 2018

New value for default parallel thread count: 1

Problem '/tmp/tmpPt6Saa.pyomo.lp' read.
Read time = 0.00 sec. (0.08 ticks)

Problem name         : /tmp/tmpPt6Saa.pyomo.lp
Objective sense      : Minimize
Variables            :     212  [Nneg: 1,  Binary: 205,  General Integer: 6]
Objective nonzeros   :       1
Linear constraints   :      94  [Less: 46,  Equal: 48]
  Nonzeros           :    5367
  RHS nonzeros       :      42

Variables            : Min LB: 0.000000         Max UB: 1.000000       
Objective nonzeros   : Min   : 1.000000         Max   : 1.000000       
Linear constraints   :
  Nonzeros           : Min   : 1.000000         Max   : 1963.000       
  RHS nonzeros       : Min   : 1.000000         Max   : 1.000000       
Tried aggregator 2 times.
MIP Presolve eliminated 77 rows and 171 columns.
Aggregator did 4 substitutions.
Reduced MIP has 13 rows, 37 columns, and 76 nonzeros.
Reduced MIP has 36 binaries, 1 generals, 0 SOSs, and 0 indicators.
Presolve time = 0.00 sec. (0.50 ticks)
Found incumbent of value 9148.000000 after 0.00 sec. (0.65 ticks)
Probing time = 0.00 sec. (0.02 ticks)
Cover probing fixed 0 vars, tightened 1 bounds.
Tried aggregator 1 time.
Reduced MIP has 13 rows, 37 columns, and 76 nonzeros.
Reduced MIP has 36 binaries, 1 generals, 0 SOSs, and 0 indicators.
Presolve time = 0.00 sec. (0.05 ticks)
Probing time = 0.00 sec. (0.02 ticks)
Clique table members: 9.
MIP emphasis: balance optimality and feasibility.
MIP search method: dynamic search.
Parallel mode: none, using 1 thread.
Root relaxation solution time = 0.00 sec. (0.03 ticks)

        Nodes                                         Cuts/
   Node  Left     Objective  IInf  Best Integer    Best Bound    ItCnt     Gap

*     0+    0                         9148.0000     4824.0000            47.27%
      0     0     4861.0000     5     9148.0000     4861.0000        6   46.86%
*     0+    0                         7074.0000     4861.0000            31.28%
      0     0     4861.0000    10     7074.0000      Cuts: 10       17   31.28%
*     0+    0                         5078.0000     4861.0000             4.27%
      0     0     4861.0000     8     5078.0000       Cuts: 4       28    4.27%
*     0+    0                         4946.0000     4861.0000             1.72%

Repeating presolve.
Tried aggregator 1 time.
MIP Presolve eliminated 1 rows and 11 columns.
Reduced MIP has 12 rows, 26 columns, and 54 nonzeros.
Reduced MIP has 25 binaries, 1 generals, 0 SOSs, and 0 indicators.
Presolve time = 0.00 sec. (0.04 ticks)
Probing time = 0.00 sec. (0.02 ticks)
Tried aggregator 1 time.
Reduced MIP has 12 rows, 26 columns, and 54 nonzeros.
Reduced MIP has 25 binaries, 1 generals, 0 SOSs, and 0 indicators.
Presolve time = 0.00 sec. (0.03 ticks)
Represolve time = 0.00 sec. (0.15 ticks)
Probing time = 0.00 sec. (0.02 ticks)
Clique table members: 12.
MIP emphasis: balance optimality and feasibility.
MIP search method: dynamic search.
Parallel mode: none, using 1 thread.
Root relaxation solution time = 0.00 sec. (0.08 ticks)

        Nodes                                         Cuts/
   Node  Left     Objective  IInf  Best Integer    Best Bound    ItCnt     Gap

*     0+    0                         4946.0000     4861.0000             1.72%
      0     0     4867.0000     6     4946.0000     4867.0000       40    1.60%
      0     0     4867.0000     6     4946.0000      Cuts: 14       45    1.60%
*     0+    0                         4907.0000     4867.0000             0.82%
      0     0     4867.0000    10     4907.0000       Cuts: 4       50    0.82%
      0     2     4867.0000     4     4907.0000     4867.0000       50    0.82%
Elapsed time = 0.01 sec. (3.12 ticks, tree = 0.01 MB, solutions = 5)

Cover cuts applied:  4
Gomory fractional cuts applied:  1

Root node processing (before b&c):
  Real time             =    0.01 sec. (3.13 ticks)
Sequential b&c:
  Real time             =    0.00 sec. (0.26 ticks)
                          ------------
Total (root+branch&cut) =    0.02 sec. (3.39 ticks)

Solution pool: 5 solutions saved.

MIP - Integer optimal solution:  Objective =  4.9070000000e+03
Solution time =    0.02 sec.  Iterations = 94  Nodes = 25
Deterministic time = 3.39 ticks  (222.01 ticks/sec)


Incumbent solution written to file '/tmp/tmpg7H8Ue.cplex.sol'.
